NAME : portcgen-20-4
COMMENT : portcgen N=20, seed=4
TYPE : TSP
DIMENSION : 20
EDGE_WEIGHT_TYPE : EUC_2D
NODE_COORD_SECTION
1 55168 -337132
2 -104874 17257
3 183177 -507734
4 79524 -191266
5 -180183 -110952
6 -114654 -221876
7 5805 28753
8 170873 -218122
9 156770 -285786
10 102609 199222
11 346230 370791
12 5834 15624
13 -339354 -213916
14 -201482 -57242
15 182092 -102566
16 -193671 -127552
17 262995 -124203
18 -193457 -109688
19 -11531 -258555
20 -333693 195488
